p cnf 86 171
1 2 3 4 5 0
-1 -2 0
-1 -3 0
-1 -4 0
-1 -5 0
-2 -3 0
-2 -4 0
-2 -5 0
-3 -4 0
-3 -5 0
-4 -5 0
-1 -62 37 0
-12 -63 43 0
-13 -64 49 0
-14 -65 55 0
-15 -66 61 0
-2 -67 37 0
-17 -68 43 0
-18 -69 49 0
-19 -70 55 0
-20 -71 61 0
-3 -72 37 0
-22 -73 43 0
-23 -74 49 0
-24 -75 55 0
-25 -76 61 0
-4 -77 37 0
-27 -78 43 0
-28 -79 49 0
-29 -80 55 0
-30 -81 61 0
-5 -82 37 0
-32 -83 43 0
-33 -84 49 0
-34 -85 55 0
-35 -86 61 0
-1 12 0
1 -12 0
-12 13 0
12 -13 0
-13 14 0
13 -14 0
-14 15 0
14 -15 0
-15 16 0
15 -16 0
-2 17 0
2 -17 0
-17 18 0
17 -18 0
-18 19 0
18 -19 0
-19 20 0
19 -20 0
-20 21 0
20 -21 0
-3 22 0
3 -22 0
-22 23 0
22 -23 0
-23 24 0
23 -24 0
-24 25 0
24 -25 0
-25 26 0
25 -26 0
-4 27 0
4 -27 0
-27 28 0
27 -28 0
-28 29 0
28 -29 0
-29 30 0
29 -30 0
-30 31 0
30 -31 0
-5 32 0
5 -32 0
-32 33 0
32 -33 0
-33 34 0
33 -34 0
-34 35 0
34 -35 0
-35 36 0
35 -36 0
-6 37 0
-1 -62 7 0
-7 1 0
-7 62 0
-2 -67 8 0
-8 2 0
-8 67 0
-3 -72 9 0
-9 3 0
-9 72 0
-4 -77 10 0
-10 4 0
-10 77 0
-5 -82 11 0
-11 5 0
-11 82 0
7 8 9 10 11 6 -37 0
-37 43 0
-12 -63 38 0
-38 12 0
-38 63 0
-17 -68 39 0
-39 17 0
-39 68 0
-22 -73 40 0
-40 22 0
-40 73 0
-27 -78 41 0
-41 27 0
-41 78 0
-32 -83 42 0
-42 32 0
-42 83 0
38 39 40 41 42 37 -43 0
-43 49 0
-13 -64 44 0
-44 13 0
-44 64 0
-18 -69 45 0
-45 18 0
-45 69 0
-23 -74 46 0
-46 23 0
-46 74 0
-28 -79 47 0
-47 28 0
-47 79 0
-33 -84 48 0
-48 33 0
-48 84 0
44 45 46 47 48 43 -49 0
-49 55 0
-14 -65 50 0
-50 14 0
-50 65 0
-19 -70 51 0
-51 19 0
-51 70 0
-24 -75 52 0
-52 24 0
-52 75 0
-29 -80 53 0
-53 29 0
-53 80 0
-34 -85 54 0
-54 34 0
-54 85 0
50 51 52 53 54 49 -55 0
-55 61 0
-15 -66 56 0
-56 15 0
-56 66 0
-20 -71 57 0
-57 20 0
-57 71 0
-25 -76 58 0
-58 25 0
-58 76 0
-30 -81 59 0
-59 30 0
-59 81 0
-35 -86 60 0
-60 35 0
-60 86 0
56 57 58 59 60 55 -61 0
